60

 0   1   2   3   1   2   3   4   2   3   4   5   3   4   5   6   4   5   6   7   5   6   7   8   6   7   8   9   7   8   9  10   8   9  10  11   9  10  11  12  10  11  12  13  11  12  13  14  12  13  14  15  13  14  15  16  14  15  16  17  
 1   0   1   2   2   1   2   3   3   2   3   4   4   3   4   5   5   4   5   6   6   5   6   7   7   6   7   8   8   7   8   9   9   8   9  10  10   9  10  11  11  10  11  12  12  11  12  13  13  12  13  14  14  13  14  15  15  14  15  16  
 2   1   0   1   3   2   1   2   4   3   2   3   5   4   3   4   6   5   4   5   7   6   5   6   8   7   6   7   9   8   7   8  10   9   8   9  11  10   9  10  12  11  10  11  13  12  11  12  14  13  12  13  15  14  13  14  16  15  14  15  
 3   2   1   0   4   3   2   1   5   4   3   2   6   5   4   3   7   6   5   4   8   7   6   5   9   8   7   6  10   9   8   7  11  10   9   8  12  11  10   9  13  12  11  10  14  13  12  11  15  14  13  12  16  15  14  13  17  16  15  14  
 1   2   3   4   0   1   2   3   1   2   3   4   2   3   4   5   3   4   5   6   4   5   6   7   5   6   7   8   6   7   8   9   7   8   9  10   8   9  10  11   9  10  11  12  10  11  12  13  11  12  13  14  12  13  14  15  13  14  15  16  
 2   1   2   3   1   0   1   2   2   1   2   3   3   2   3   4   4   3   4   5   5   4   5   6   6   5   6   7   7   6   7   8   8   7   8   9   9   8   9  10  10   9  10  11  11  10  11  12  12  11  12  13  13  12  13  14  14  13  14  15  
 3   2   1   2   2   1   0   1   3   2   1   2   4   3   2   3   5   4   3   4   6   5   4   5   7   6   5   6   8   7   6   7   9   8   7   8  10   9   8   9  11  10   9  10  12  11  10  11  13  12  11  12  14  13  12  13  15  14  13  14  
 4   3   2   1   3   2   1   0   4   3   2   1   5   4   3   2   6   5   4   3   7   6   5   4   8   7   6   5   9   8   7   6  10   9   8   7  11  10   9   8  12  11  10   9  13  12  11  10  14  13  12  11  15  14  13  12  16  15  14  13  
 2   3   4   5   1   2   3   4   0   1   2   3   1   2   3   4   2   3   4   5   3   4   5   6   4   5   6   7   5   6   7   8   6   7   8   9   7   8   9  10   8   9  10  11   9  10  11  12  10  11  12  13  11  12  13  14  12  13  14  15  
 3   2   3   4   2   1   2   3   1   0   1   2   2   1   2   3   3   2   3   4   4   3   4   5   5   4   5   6   6   5   6   7   7   6   7   8   8   7   8   9   9   8   9  10  10   9  10  11  11  10  11  12  12  11  12  13  13  12  13  14  
 4   3   2   3   3   2   1   2   2   1   0   1   3   2   1   2   4   3   2   3   5   4   3   4   6   5   4   5   7   6   5   6   8   7   6   7   9   8   7   8  10   9   8   9  11  10   9  10  12  11  10  11  13  12  11  12  14  13  12  13  
 5   4   3   2   4   3   2   1   3   2   1   0   4   3   2   1   5   4   3   2   6   5   4   3   7   6   5   4   8   7   6   5   9   8   7   6  10   9   8   7  11  10   9   8  12  11  10   9  13  12  11  10  14  13  12  11  15  14  13  12  
 3   4   5   6   2   3   4   5   1   2   3   4   0   1   2   3   1   2   3   4   2   3   4   5   3   4   5   6   4   5   6   7   5   6   7   8   6   7   8   9   7   8   9  10   8   9  10  11   9  10  11  12  10  11  12  13  11  12  13  14  
 4   3   4   5   3   2   3   4   2   1   2   3   1   0   1   2   2   1   2   3   3   2   3   4   4   3   4   5   5   4   5   6   6   5   6   7   7   6   7   8   8   7   8   9   9   8   9  10  10   9  10  11  11  10  11  12  12  11  12  13  
 5   4   3   4   4   3   2   3   3   2   1   2   2   1   0   1   3   2   1   2   4   3   2   3   5   4   3   4   6   5   4   5   7   6   5   6   8   7   6   7   9   8   7   8  10   9   8   9  11  10   9  10  12  11  10  11  13  12  11  12  
 6   5   4   3   5   4   3   2   4   3   2   1   3   2   1   0   4   3   2   1   5   4   3   2   6   5   4   3   7   6   5   4   8   7   6   5   9   8   7   6  10   9   8   7  11  10   9   8  12  11  10   9  13  12  11  10  14  13  12  11  
 4   5   6   7   3   4   5   6   2   3   4   5   1   2   3   4   0   1   2   3   1   2   3   4   2   3   4   5   3   4   5   6   4   5   6   7   5   6   7   8   6   7   8   9   7   8   9  10   8   9  10  11   9  10  11  12  10  11  12  13  
 5   4   5   6   4   3   4   5   3   2   3   4   2   1   2   3   1   0   1   2   2   1   2   3   3   2   3   4   4   3   4   5   5   4   5   6   6   5   6   7   7   6   7   8   8   7   8   9   9   8   9  10  10   9  10  11  11  10  11  12  
 6   5   4   5   5   4   3   4   4   3   2   3   3   2   1   2   2   1   0   1   3   2   1   2   4   3   2   3   5   4   3   4   6   5   4   5   7   6   5   6   8   7   6   7   9   8   7   8  10   9   8   9  11  10   9  10  12  11  10  11  
 7   6   5   4   6   5   4   3   5   4   3   2   4   3   2   1   3   2   1   0   4   3   2   1   5   4   3   2   6   5   4   3   7   6   5   4   8   7   6   5   9   8   7   6  10   9   8   7  11  10   9   8  12  11  10   9  13  12  11  10  
 5   6   7   8   4   5   6   7   3   4   5   6   2   3   4   5   1   2   3   4   0   1   2   3   1   2   3   4   2   3   4   5   3   4   5   6   4   5   6   7   5   6   7   8   6   7   8   9   7   8   9  10   8   9  10  11   9  10  11  12  
 6   5   6   7   5   4   5   6   4   3   4   5   3   2   3   4   2   1   2   3   1   0   1   2   2   1   2   3   3   2   3   4   4   3   4   5   5   4   5   6   6   5   6   7   7   6   7   8   8   7   8   9   9   8   9  10  10   9  10  11  
 7   6   5   6   6   5   4   5   5   4   3   4   4   3   2   3   3   2   1   2   2   1   0   1   3   2   1   2   4   3   2   3   5   4   3   4   6   5   4   5   7   6   5   6   8   7   6   7   9   8   7   8  10   9   8   9  11  10   9  10  
 8   7   6   5   7   6   5   4   6   5   4   3   5   4   3   2   4   3   2   1   3   2   1   0   4   3   2   1   5   4   3   2   6   5   4   3   7   6   5   4   8   7   6   5   9   8   7   6  10   9   8   7  11  10   9   8  12  11  10   9  
 6   7   8   9   5   6   7   8   4   5   6   7   3   4   5   6   2   3   4   5   1   2   3   4   0   1   2   3   1   2   3   4   2   3   4   5   3   4   5   6   4   5   6   7   5   6   7   8   6   7   8   9   7   8   9  10   8   9  10  11  
 7   6   7   8   6   5   6   7   5   4   5   6   4   3   4   5   3   2   3   4   2   1   2   3   1   0   1   2   2   1   2   3   3   2   3   4   4   3   4   5   5   4   5   6   6   5   6   7   7   6   7   8   8   7   8   9   9   8   9  10  
 8   7   6   7   7   6   5   6   6   5   4   5   5   4   3   4   4   3   2   3   3   2   1   2   2   1   0   1   3   2   1   2   4   3   2   3   5   4   3   4   6   5   4   5   7   6   5   6   8   7   6   7   9   8   7   8  10   9   8   9  
 9   8   7   6   8   7   6   5   7   6   5   4   6   5   4   3   5   4   3   2   4   3   2   1   3   2   1   0   4   3   2   1   5   4   3   2   6   5   4   3   7   6   5   4   8   7   6   5   9   8   7   6  10   9   8   7  11  10   9   8  
 7   8   9  10   6   7   8   9   5   6   7   8   4   5   6   7   3   4   5   6   2   3   4   5   1   2   3   4   0   1   2   3   1   2   3   4   2   3   4   5   3   4   5   6   4   5   6   7   5   6   7   8   6   7   8   9   7   8   9  10  
 8   7   8   9   7   6   7   8   6   5   6   7   5   4   5   6   4   3   4   5   3   2   3   4   2   1   2   3   1   0   1   2   2   1   2   3   3   2   3   4   4   3   4   5   5   4   5   6   6   5   6   7   7   6   7   8   8   7   8   9  
 9   8   7   8   8   7   6   7   7   6   5   6   6   5   4   5   5   4   3   4   4   3   2   3   3   2   1   2   2   1   0   1   3   2   1   2   4   3   2   3   5   4   3   4   6   5   4   5   7   6   5   6   8   7   6   7   9   8   7   8  
10   9   8   7   9   8   7   6   8   7   6   5   7   6   5   4   6   5   4   3   5   4   3   2   4   3   2   1   3   2   1   0   4   3   2   1   5   4   3   2   6   5   4   3   7   6   5   4   8   7   6   5   9   8   7   6  10   9   8   7  
 8   9  10  11   7   8   9  10   6   7   8   9   5   6   7   8   4   5   6   7   3   4   5   6   2   3   4   5   1   2   3   4   0   1   2   3   1   2   3   4   2   3   4   5   3   4   5   6   4   5   6   7   5   6   7   8   6   7   8   9  
 9   8   9  10   8   7   8   9   7   6   7   8   6   5   6   7   5   4   5   6   4   3   4   5   3   2   3   4   2   1   2   3   1   0   1   2   2   1   2   3   3   2   3   4   4   3   4   5   5   4   5   6   6   5   6   7   7   6   7   8  
10   9   8   9   9   8   7   8   8   7   6   7   7   6   5   6   6   5   4   5   5   4   3   4   4   3   2   3   3   2   1   2   2   1   0   1   3   2   1   2   4   3   2   3   5   4   3   4   6   5   4   5   7   6   5   6   8   7   6   7  
11  10   9   8  10   9   8   7   9   8   7   6   8   7   6   5   7   6   5   4   6   5   4   3   5   4   3   2   4   3   2   1   3   2   1   0   4   3   2   1   5   4   3   2   6   5   4   3   7   6   5   4   8   7   6   5   9   8   7   6  
 9  10  11  12   8   9  10  11   7   8   9  10   6   7   8   9   5   6   7   8   4   5   6   7   3   4   5   6   2   3   4   5   1   2   3   4   0   1   2   3   1   2   3   4   2   3   4   5   3   4   5   6   4   5   6   7   5   6   7   8  
10   9  10  11   9   8   9  10   8   7   8   9   7   6   7   8   6   5   6   7   5   4   5   6   4   3   4   5   3   2   3   4   2   1   2   3   1   0   1   2   2   1   2   3   3   2   3   4   4   3   4   5   5   4   5   6   6   5   6   7  
11  10   9  10  10   9   8   9   9   8   7   8   8   7   6   7   7   6   5   6   6   5   4   5   5   4   3   4   4   3   2   3   3   2   1   2   2   1   0   1   3   2   1   2   4   3   2   3   5   4   3   4   6   5   4   5   7   6   5   6  
12  11  10   9  11  10   9   8  10   9   8   7   9   8   7   6   8   7   6   5   7   6   5   4   6   5   4   3   5   4   3   2   4   3   2   1   3   2   1   0   4   3   2   1   5   4   3   2   6   5   4   3   7   6   5   4   8   7   6   5  
10  11  12  13   9  10  11  12   8   9  10  11   7   8   9  10   6   7   8   9   5   6   7   8   4   5   6   7   3   4   5   6   2   3   4   5   1   2   3   4   0   1   2   3   1   2   3   4   2   3   4   5   3   4   5   6   4   5   6   7  
11  10  11  12  10   9  10  11   9   8   9  10   8   7   8   9   7   6   7   8   6   5   6   7   5   4   5   6   4   3   4   5   3   2   3   4   2   1   2   3   1   0   1   2   2   1   2   3   3   2   3   4   4   3   4   5   5   4   5   6  
12  11  10  11  11  10   9  10  10   9   8   9   9   8   7   8   8   7   6   7   7   6   5   6   6   5   4   5   5   4   3   4   4   3   2   3   3   2   1   2   2   1   0   1   3   2   1   2   4   3   2   3   5   4   3   4   6   5   4   5  
13  12  11  10  12  11  10   9  11  10   9   8  10   9   8   7   9   8   7   6   8   7   6   5   7   6   5   4   6   5   4   3   5   4   3   2   4   3   2   1   3   2   1   0   4   3   2   1   5   4   3   2   6   5   4   3   7   6   5   4  
11  12  13  14  10  11  12  13   9  10  11  12   8   9  10  11   7   8   9  10   6   7   8   9   5   6   7   8   4   5   6   7   3   4   5   6   2   3   4   5   1   2   3   4   0   1   2   3   1   2   3   4   2   3   4   5   3   4   5   6  
12  11  12  13  11  10  11  12  10   9  10  11   9   8   9  10   8   7   8   9   7   6   7   8   6   5   6   7   5   4   5   6   4   3   4   5   3   2   3   4   2   1   2   3   1   0   1   2   2   1   2   3   3   2   3   4   4   3   4   5  
13  12  11  12  12  11  10  11  11  10   9  10  10   9   8   9   9   8   7   8   8   7   6   7   7   6   5   6   6   5   4   5   5   4   3   4   4   3   2   3   3   2   1   2   2   1   0   1   3   2   1   2   4   3   2   3   5   4   3   4  
14  13  12  11  13  12  11  10  12  11  10   9  11  10   9   8  10   9   8   7   9   8   7   6   8   7   6   5   7   6   5   4   6   5   4   3   5   4   3   2   4   3   2   1   3   2   1   0   4   3   2   1   5   4   3   2   6   5   4   3  
12  13  14  15  11  12  13  14  10  11  12  13   9  10  11  12   8   9  10  11   7   8   9  10   6   7   8   9   5   6   7   8   4   5   6   7   3   4   5   6   2   3   4   5   1   2   3   4   0   1   2   3   1   2   3   4   2   3   4   5  
13  12  13  14  12  11  12  13  11  10  11  12  10   9  10  11   9   8   9  10   8   7   8   9   7   6   7   8   6   5   6   7   5   4   5   6   4   3   4   5   3   2   3   4   2   1   2   3   1   0   1   2   2   1   2   3   3   2   3   4  
14  13  12  13  13  12  11  12  12  11  10  11  11  10   9  10  10   9   8   9   9   8   7   8   8   7   6   7   7   6   5   6   6   5   4   5   5   4   3   4   4   3   2   3   3   2   1   2   2   1   0   1   3   2   1   2   4   3   2   3  
15  14  13  12  14  13  12  11  13  12  11  10  12  11  10   9  11  10   9   8  10   9   8   7   9   8   7   6   8   7   6   5   7   6   5   4   6   5   4   3   5   4   3   2   4   3   2   1   3   2   1   0   4   3   2   1   5   4   3   2  
13  14  15  16  12  13  14  15  11  12  13  14  10  11  12  13   9  10  11  12   8   9  10  11   7   8   9  10   6   7   8   9   5   6   7   8   4   5   6   7   3   4   5   6   2   3   4   5   1   2   3   4   0   1   2   3   1   2   3   4  
14  13  14  15  13  12  13  14  12  11  12  13  11  10  11  12  10   9  10  11   9   8   9  10   8   7   8   9   7   6   7   8   6   5   6   7   5   4   5   6   4   3   4   5   3   2   3   4   2   1   2   3   1   0   1   2   2   1   2   3  
15  14  13  14  14  13  12  13  13  12  11  12  12  11  10  11  11  10   9  10  10   9   8   9   9   8   7   8   8   7   6   7   7   6   5   6   6   5   4   5   5   4   3   4   4   3   2   3   3   2   1   2   2   1   0   1   3   2   1   2  
16  15  14  13  15  14  13  12  14  13  12  11  13  12  11  10  12  11  10   9  11  10   9   8  10   9   8   7   9   8   7   6   8   7   6   5   7   6   5   4   6   5   4   3   5   4   3   2   4   3   2   1   3   2   1   0   4   3   2   1  
14  15  16  17  13  14  15  16  12  13  14  15  11  12  13  14  10  11  12  13   9  10  11  12   8   9  10  11   7   8   9  10   6   7   8   9   5   6   7   8   4   5   6   7   3   4   5   6   2   3   4   5   1   2   3   4   0   1   2   3  
15  14  15  16  14  13  14  15  13  12  13  14  12  11  12  13  11  10  11  12  10   9  10  11   9   8   9  10   8   7   8   9   7   6   7   8   6   5   6   7   5   4   5   6   4   3   4   5   3   2   3   4   2   1   2   3   1   0   1   2  
16  15  14  15  15  14  13  14  14  13  12  13  13  12  11  12  12  11  10  11  11  10   9  10  10   9   8   9   9   8   7   8   8   7   6   7   7   6   5   6   6   5   4   5   5   4   3   4   4   3   2   3   3   2   1   2   2   1   0   1  
17  16  15  14  16  15  14  13  15  14  13  12  14  13  12  11  13  12  11  10  12  11  10   9  11  10   9   8  10   9   8   7   9   8   7   6   8   7   6   5   7   6   5   4   6   5   4   3   5   4   3   2   4   3   2   1   3   2   1   0  

 0   0   0   1   0   0   0   0   0   0   0   0   0   0   0   0   0   0   0   0   1   0   0   0   0   1   0   0   0  97   0   0   0  15   0   0   0   0   0   0   0   0   0   0   0   0   1   0   0   0   0   0   0   0   0   0   1   0   0   0  
 0   0   0   0   0   0   0   0  61   0   0   5   0   0   0   0   0   0   0   0   0   0   1   0   0   0   0   0   0   0   0   0   0   0   0   0   0   0   0   0   0   0   0   0   0   0   0   0   0   0   0   0   0   0   0   0   0   0  56   5  
 0   0   0   0   3   0   0   0   0   0   0   1   1   0   0   0   0   0   0   1   0   0   0   0  52   0   3   0   0   0   0   0  51   0   0   0   0   0   0   0   0   0   0   0   0   0   0   0   1   0   0   0   0   0   0   0   0  17   0   0  
 0   0   0   0   0   0   0   0   0   0   0   0   0   0   0   0   0   0   0   0   0   0   0   0   0   0   1   0   2  33   0   0   0   0   0   0   0   0   0   0   0   0   0   0   0   0   0   0   0   0   0   0   0   0   0   0   0   0   0   0  
 0   0   0   0   0   0   0   0   0   0   0   5   0   0   0   0   0   0   0   0   0   0   0   0   0   0   0   0   0   0   0   0   0   0   0   0   0  14   0   0   0   0   0   0   0   0   0   0   0   0   0   0   0   0   0   0   0   0   0   0  
 0   0   0   0   0   0   0   0   0  79   0   0   0   0   0   0   1   0   0   0   0   0   0   6   0   0   0   0   0   0   0   0   0   0   0   0   0  81   0   0   0   0   0   0   0   0   0   0   0   0   0   0   0   0   0   0   0   4   2   0  
 0   0   0   1   0   0   0   0   0   0   0   0   0   0   0   0   0   0   0   0   0   0   0   0   0   0   0   0   0   0   0   0   0   0   0   0   0   0   0   0   0   0   0   0   0   0   0   0   0   0   0  12   1   0   0   0   0   0   0   0  
 0   9   0   0   0   0   0   0   0   0   0   0   0   1   0   0   0   0   0   0   0   0   0   0   0   0   0   0   0   0   0   0   0  17   0   0   0   0   0   0   6   0   0   0   0   0   0   0   0   0   0   0   0   0   0   0   0   0   0   0  
 0   1   0   0   0   0   0   0   0   0   0   0   0   0   0   1   0   0   0   1   0   0   0   0   0   0   0   0   0   0   0   0   0   0   0  36   0   0   1   0   0   0   0   0   0   0   0   0   0   0   0   0   0   0   0   0   0   0   0   0  
 0   0   0   0   0   1   1   0   0   0   0   0   1   0   0   0   0   0   0   0   0   0   0  39   0   0   0   0   0   0   0   4   0   0   0   0   0   0   0   0   0   0   0   0   0   0   0   0   1   0   0   0   0   0   0   0   0  52  79   0  
 0   0   0   0   0   0   0   0   0   0   0   0   0   0   1   0   0   0   0   0   0   0   0   0   0   0   0   0   0   0   0   0   0   0   1   0   0   1   0   9  24   0   0  32   1   0   0   0   0   0   0   0   0   0   0   0   0   0   0   0  
 0   0  10   0   0   0   0  81   0   0   0   0   0   0   0   0   0   0   0   0   1   0   4   0   1   0  86   0   2   0   0   0  42   0   0   0   0   1   0   0   0   0   0   0   0   0   0   0   1   0   0   0   0   0   0   0   0   0   9   0  
 0   0   0   0   0   0   0   0   0   0   0   0   0   3   0   0   0   0   0   0   0   0   0   0   0   0   0   0   0   0   0   0   0   0   0   0   0   0   0   0   0   0   0   0   0   0   0   0   0  48   0   0   0   0   0   0   0   0   0   0  
 0   0   0   0   0   0   0  14   0   0   0   0  68   0   0   0   0   0   0   0   0   0   0   0   0   0   0   0   0   0   0   0   0   0   0   0   0   1   0   0  16   0   0   0   0   0   0   0   0   1   0   0   0   0   0   0   0   0   0   0  
 0   0   0   0   0   0   0   0   0   0   0  13   0   0   0   0   0   0   0   0  18   0   0   0   0   0   0  21   0   0   0   0   0   0   0   0   0  10   0   0   0   0   0   0   0   0   0   0  79   0  11   0   0   0   0   0   0   0   2   0  
 0   0   0   0   0   0   1   0   0   0   0   0   0   0   0   0   0   0   0   0   0   0   0   0   0   0   0   0   0   0   0   1   0   0   0   0   0   0   0   0   0   1   0   0   0   0   0   0   5   0   0   0   0   0   0   0   0   0   0   0  
 0   0   0   0   0   0   0   0   0   0   0   0   0   0   0   0   0   0   0   0   0   0   0   0   0   0  80   0   0   0   0   0   0   0   0   5  34   0   0   0   0   0   0   0   0   0   0   0   0   0   0   0   0   0   0   0   0   0   0   0  
 0   0   0   0   0   0   0   0   0   0   0   0   0   0   0   0   0   0   0   0   0   0   0   0   1   0   0   0   0   0   0   0   0   0   0   0   0   0   0   0   0   0   0   0   0   0   0   0   0   0   0   0   0   0   0   0   0   0   0   0  
 0   0   0   0   0   0   0  23   0   0   0   0   0   0   0   0   0   0   0   0   0   0   0   0   0   0   0   0   0   0   0   0   0   0   0   0   0   0   0   0   0   0   0   0   0   0   0   0   0   0  13   0   0   0  61   0   0   0   0   0  
 0   0   0   0   0   0   0   0   0   0   0   0   0   0   0   0   0   0   0   0   0   0   0   0   0   1   0   0   0   0   0   0   1   0   0   0   0   0   0   0   0   0   2   0   0   0   0   0   0   0   0   0   0  17   0   0   0   0   0  24  
 1   0   0   0   0   0   0   0   0   0   0   0   0   0   0   0   0   0   0   0   0   0   0   9   0  15   0   0   0   1   0   0   0   0   0   0   0   0   0   0   0   0   0   0   0   0   1   0   0   0   0   0   0   0   0   0   0   0   0   0  
 0   0   0   0   0   0   0   0   0  99   0   0   0   0   0   0   0   0   0   0   0   0   0   0   0   0   0   0   0   0   0   0   0   0   0   0  14   0   0   0   0   0   0   1   0   0   0   0   0   0   0   0   0   0   0   0   0   0   0   0  
 0   1   0   0   0   0  27   0   0   0   0   0   0   0   0   0   0   0   0   0   0   0   0   0   0   0   0   0   3   0   0   0  20   0   1   0   0   0   1   1   0   0   0   0   0   0   0   0   0   1   0   0   0   0   0   0   0   0   0   0  
 0   0   0   0   0   6   0   0   0   1   0   0   0   0   0   0   0   0   0   0   0   0   0   0   0   0   0   0   0   0   0   0   0   0   0   0   0   0   0   0   0   0   0   0  76   0   0   0   0   0   0   0   0   0   0   0   0   2   9   0  
 0  19   2   0   0   0   0   0   0   0   0  41   0   0   0   0   0   0   0   0   0   6   0   0   0   0   1   0   0   0   0   0   1   0   0   0   0   0   0   0   0   0   0   0   0   0   0   0  58   0   0   0   0   0   0   0   0   0   0   0  
 1   0   0   0   0   0   0   0   0   0   0   0   0   0   0   0   0   0   0  82  12   0   0   0   0   0   0   0   0   1  25   0   0   0   0   0   0   0   0   0   0   0  95   0   0   0  70   0   0   2   0   0   0   1   0   0   0   0  21   0  
 0   0   1   0   0   0   0   0   0   0   0   1   0   0   0   0   0   0   0   0   0   0   0   0   7   0   0   3   0   0   0   0   5   0   0   0   2   0   0   0   0   0   0   0   0   0   0   0   1   0   0   0   0   0   0   0   0   0   1   0  
 0   0   0   0  21   0   0   1   0   0   0   0   0   0  81   0   0   0   0   0   0   1   3   0   0   1   0   0   0   0   0   0   0   0   0   0   0   0   0   0   0   0   0   0  35   0   0   1   0   0   0   0   0   0   0   0   0   0   0   0  
 0   0   0   0   0   0   0   0   0   0   0   0   0   0   0   0   0   1   0   0   0   0   1   0   0   0   0   0   0   0   0   0   0   0   5  17   0   0   1   1   0   0   0   0   0   0   0   0   0   0   0   0   0   0   0   0   0   0   0   0  
 1   0   0   0   0   0   0   0   0   0   0   0   0   0   0   0   0   0   0   0   1   0   0   0   0   1   0   0   0   0   0   0   0   0   0   0   0   0   0   0   0  13   0   0   0   0   1   0   0   0   0   0   0   0   0   0   9   0   0   0  
 0   0   0   0   0   0   0   0   0   1   0   0   0   0   0   0   0   0   0   0   0  46   0   0   0   1   1   0   0   0   0   0   0   0   0   1   0   0   0   0   0   0   0   0   0   0   0   0   0   0   0   0   0   0   0   0   0   0   0   0  
 0   0   0   0   0   0   0   0   0   0   0   0   0   0   0   0   0   0   0   0   0   0   0   0   0   1   0   0   0   0   0   0   0   0   0   0   0   0   0   0   0   0   2   0   0   0   0   0   0   0   0   0   0  63   0   0   0  13   0   0  
 0   0   1   0   0   0   0   0   0   0   0   6   0   0   0   0   0   0   0   1   0   0   0   0  77   0  39   0   0  41   0   0   0   0   0   0   0   0   0   0   0   0   0   0  49   0   0   1   2   0   0   0   0  61   0   0   0   0   0   0  
55   0   0   0   0   0   0   0   0   0   0   0   0   0   1   0   0   0   0   0   0   1   0   0   0   1   0   0   0   0   0   0   0   0   0   0   0   0   0   0   0   0   0   0   0   0   1   0   0   0   0   0   0   0   0  73  14   0   0   0  
 0   0   0   0   0   0   0   0   0   0   6   0   0   0   0   0   0   0   0   1   0   0  69   0   0   0   0   0   1   0   0   0   0   0   0   0  39   0   0  30   0   0   0   0   0   0   0   0   0   1   0   0   0   0   0   0   0   0   0   0  
 0   0   0   0   0   0  82   0   0   0   0   0   0   0   0   0   0   0   0   0   0   0   0   0   0   0   0   0   0   0   3   0   0   0   0   0   0   0   0   0   0   0   0   0   0  30   0   0   0   0   5   0   0   0   0   0   0   0   0   0  
 0   0   0   0   0  69   0   0   0   0   0   1   0   0   0   0   1   0   0   0   0  54   0   0   0   0   0   0   0   0   0   0   0   0   0   0   0   0   0   0   0   0   0   1   0   0   0   0   1   0   0   0   0   0   0   0   0   0   0   0  
 0   0   0   0   1   0   0   0   0   0   1   7   0   0   0   0   0   0   0   0   3   0   0   0   0   5   0   0   0   0   0   0   0  62   0   0   0   0   1   0   0   0   0  20   1   0   0   0   0   0   0   0   0   0   0   0   0   0   0   0  
 0   0   0   0   0   0   0   0   4   0   0   0   0  51   0   0   0   0   0   0   0   0   0   0   0   0   0   0   0   0   0   0   0   0   0   0   0   0   0   0   0   0   0   0   9   4   0   0   0   0   0   0   0   0   0   0   0   0  40   0  
 0   0   0   0   0   0   0   0   0   0   0   0   0   0   0   0   0   0   0   0   0   0   1   0   0   0   0   0   2   0   0   0   0   0  10   0   0   0   0   0   0   0   0   0   0   0   0   0   0   0   0   0   0   0   0   0   0   0   0   0  
 0   0   0   0   0   0   0   8   0   0   0   0   0  81   0   0   0   0   0   0   0   0   0   0   0   0   0   0   0   0   0   0   0   0   0   0   0   0   0   0   0   0   0   0   0   0   0   0   0   1   0   0   0   0   0   0   0   0   0   0  
 0   0   0   0   0   0   0   0   0   0   0   0   0   0   0  11   0   0   0   0   0   0   0   0   0   0   0   0   0   0   0   0   0   0   0   0   0   0   0   2   0   0   0   0   0   0   0   9   0   0   0   0  13   0   0   0   0   0   0   0  
 0   0   0   1   0   0   0   0   0   0   0   0   0   0   0   0   0   0   0   9   0   0   0   0   0  20   0  40   0   0   0  29   0   0   0   0   0   0   0   0   0   0   0   0   0   0   0   0   0   0   0   0   0   1   0   0   0   0   0   0  
 0   0   0   0   0   0   0   0   0   0   0   0   0   0   0   0  24   0   0   0   0  33   0   0   0   0   0   0   0   0   0   0   0   0   0   0   1   0   0   0   0   0  78   0   0   0   0   0   0   0   0   0  70   0   0   0   0   0   0   0  
 0   0   0   0   0   0   0   0   0   0   1   0   0   0   0   0   0   0   0   0   0   0   0   0   0   0   0   0   0   0   0   0   0   0   0   1   0   2   3   0   0   0   0   0   0   1   0   2   0   0   0   0   1   0   0   0   0   0   0   0  
 0   0   0   0   0   0   1   0   0   0   0   0   0   0   0   0   1   0   0   0   0   0   0   0   0   0   0  73   0   0   0   0  21   0   0   0   0   0  32   0   0   0   0   0   2   0   0   0  12   0   0   0   0   0   0   0   0   0   0  23  
 1   0   0   0   0   0   0   0   0   0   0   0   0   0   0   0   0   0   0   0  48   0   0   0   0   2   0   0   0   4  13   0   0  69   0   0   0   0   0   0   0   0   0   0   0   0   0   0   0   0   0   0   0   0   0   0   3   0   0   0  
 0   0   0   0   0   0   0   0   0   0   0   0   0   0   0   0   0   0   0   0   0   0   0   0   0   0   0   0   0   0   0   0   0   0   0   0   0   0   0   0   0   0   0   0   1   0   0   0   0   0   0   0   0   0   0   0   0   0   0   0  
 0   0  17   0   0   0   0   0   0   0   0   3   0   0   0   0   0   0   0   0   0   0   0   0  30   0   2   0   0   0   0   0   1   0   0   0   0   0   0   0   0   0   0   0   0   0   0   0   0   0   0   0   0   0   0  94   0   0   0   0  
 0   0   0   0   0   0   0   0   0   0   0   0  14   8   0   0   0   0   0   0   0   0   0   0   0   1   0   0   0   0   0   0  18   0   0   0   0   0   0   0  24   0   0   0   0   0   0   0   0   0   0   0   0   0   0   0   0   0   0   0  
 0   0   0   0   0   0   0   0   0   0   0   0   0   0   0   0   0   0   1   0   0   0   0   0   0   0   0   0   0   0   0   0   0   0  31   0   0   0   0   0   5   0   0   0   0   0   0   0   0   0   0   0   0   0   1   0   0   0   0   0  
 0   0   0   2   0   0   1   0   0   0   0   0   0   0   0   0   0   0   0   0   0   0   0   0   0   0   0   0   0   0   0   0   0   0   0   0   0   0   0  16   0   0   0   0   0   0   0   0   0   0   0   0   0   0   0   0   0   0   0   0  
 0   0   0   0   0   0   4   0   0   0   0   0   0   0   0   0   0   0   0   0   0   0   0   0   0   0   0   0   0   0   0   0   2   0   0   0   0   0   0   0   0   0   0   0   0   0   0   0   0   0   0   0   0   0   0   0   0   0   0   0  
 0   0   0   0   0   0   1   0   0   0   0   0   0   0  66   0   0   0   0   3   0   0   0   0   0   3   0   0   0   0   0  35   2   0   0   0   1   0   0   0   0   0  11   0   0   0   0   0   0   0   0   0   0   0   0   0   0   0   0   0  
 0   0   0   0   0   0   0   0   0   0   0   5   0   0   0   0   0   0   1   0  46   0   0   0   0   0   0   0   0   0   0   0   0   0   0   0   1   0   0   0   0   0   0   0   0   0   0   0   0   0   1   0   1   0   0   0   0   0   0   0  
 0   0   0   0   0   0   0   0   0   0   0   0   0   0   0   0   0   0   0   0   0   0   0  30   0   0   0   0   0   0  18   0   0  75   0   0   0   0   0   0   0   0   1   0  19   0   0   0   0   0   0   0   0   0   0   0   0   0   0   0  
 1   0   0   0   8   0   0   0   0   0   0   0   0   0   0   0   0   0   0   0  13   0   0  35   0   0   0   0   0  87   1   0   0  70   0   0   0   0   1   0   0   0   0   0   0   0  29  85   0   0   0   0   0   0   0   0   0   0   1   0  
 0   0   0   0   0   1   0   0   0   2   0   0   0   0  49   0   0   0   0   0   0   0   0   1   0   0   0   0   0   0   0   0   0   0   0   0   0   0  61   0   0   0   0   0   0   0   0   0   0   0   0   0   0   0   0   0   0   0  26   0  
 0   0   0   0   0   1   0   0   0   1   0   0   0   0   0   0   0   0   1   0   1   0   0  29   0   0   0   0   0   2   0  37   0   0   0  21   0   0   0   0   0   0   0   0   0   0   0   0   0   0   0   1   0   0   0   0   0   3   0   0  
 0  99   0   0   0   0   0   0   0   0   0   0   0   0   0   0   0   0   0   0   0   0   0   0   0   0   0   0   0   0   0   0   0   0   0   6  52   0   0   0   0   0   0   0   0   0   0   0   0   0   0   0   0   0   0   0   0   0   0   0  
